10J3M/DAT/10J3MULL-12.dat
10 3
43.7833 43.7833
4.1913 4.1913
1.345 1.345
1.9089 1.9089
32.9428 32.9428
1.3246 1.3246
33.3885 33.3885
47.4252 47.4252
13.8541 13.8541
39.825 39.825
73.3296