10J3M/SOL/10J3MULL-12.sol
solution status: optimal solution found
objective value:                     76.6351666666666
x#1#1                                               1 	(obj:0)
x#2#3                                               1 	(obj:0)
x#3#1                                               1 	(obj:0)
x#4#2                                               1 	(obj:0)
x#5#1                                               1 	(obj:0)
x#6#1                               0.688334941659052 	(obj:0)
x#6#2                               0.311665058340948 	(obj:0)
x#7#1                                               1 	(obj:0)
x#8#2                                               1 	(obj:0)
x#9#2                               0.230091705996645 	(obj:0)
x#9#3                               0.769908294003355 	(obj:0)
x#10#1                                              1 	(obj:0)
z                                    76.6351666666666 	(obj:1)
